RT is False
Default write of storage_offers_DA.csv just to have a file (but constraint should be inactive)
Reading model...
...model read.
creating competitive generators file...
...competitive generators recorded.
Loading data...
.. day-ahead data read.
Compiling instance...
...instance created.
Creating Offer Mitigation (model will solve as dispatch if TRUE)...
...storage offer mitigation file created
Converting model to MPEC...
...converted
MIP
NOTE: initial MIP solve with only storage competitive to get feasible solution
Solving...

Welcome to IBM(R) ILOG(R) CPLEX(R) Interactive Optimizer 12.9.0.0
  with Simplex, Mixed Integer & Barrier Optimizers
5725-A06 5725-A29 5724-Y48 5724-Y49 5724-Y54 5724-Y55 5655-Y21
Copyright IBM Corp. 1988, 2019.  All Rights Reserved.

Type 'help' for a list of available commands.
Type 'help' followed by a command name for more
information on commands.

CPLEX> Logfile 'cplex.log' closed.
Logfile 'C:\Users\llavin\Desktop\competitiveMPEC_dev1.27\logs\tmpujd39ukl.cplex.log' open.
CPLEX> New value for parallel optimization mode: -1
CPLEX> New value for mixed integer optimality gap tolerance: 0.01
CPLEX> New value for feasibility tolerance: 1e-05
CPLEX> New value for deterministic time limit in ticks: 250000
CPLEX> Problem 'C:\Users\llavin\Desktop\competitiveMPEC_dev1.27\logs\tmpola8ns57.pyomo.lp' read.
Read time = 0.27 sec. (13.83 ticks)
CPLEX> Problem name         : C:\Users\llavin\Desktop\competitiveMPEC_dev1.27\logs\tmpola8ns57.pyomo.lp
Objective sense      : Maximize
Variables            :   53321  [Nneg: 937,  Box: 21806,  Free: 3480,
                                 Binary: 27098]
Objective nonzeros   :    8922
Linear constraints   :  122140  [Less: 40959,  Greater: 58612,  Equal: 22569]
  Nonzeros           :  288422
  RHS nonzeros       :   66947

Variables            : Min LB: -5000.000        Max UB: 5000.000       
Objective nonzeros   : Min   : 1.600000         Max   : 793.8000       
Linear constraints   :
  Nonzeros           : Min   : 0.8500000        Max   : 990000.0       
  RHS nonzeros       : Min   : 1.000000         Max   : 1000000.       
CPLEX> CPXPARAM_Parallel                                -1
CPXPARAM_Simplex_Tolerances_Feasibility          1.0000000000000001e-05
CPXPARAM_DetTimeLimit                            250000
CPXPARAM_MIP_Tolerances_MIPGap                   0.01
Tried aggregator 3 times.
MIP Presolve eliminated 88250 rows and 19080 columns.
MIP Presolve added 3339 rows and 0 columns.
MIP Presolve modified 24438 coefficients.
Aggregator did 12830 substitutions.
Reduced MIP has 24399 rows, 20829 columns, and 68411 nonzeros.
Reduced MIP has 8223 binaries, 0 generals, 0 SOSs, and 0 indicators.
Presolve time = 0.31 sec. (165.94 ticks)
Probing fixed 411 vars, tightened 5659 bounds.
Probing time = 0.08 sec. (21.04 ticks)
Tried aggregator 2 times.
MIP Presolve eliminated 918 rows and 823 columns.
MIP Presolve modified 2969 coefficients.
Aggregator did 42 substitutions.
Reduced MIP has 23439 rows, 19964 columns, and 65621 nonzeros.
Reduced MIP has 7812 binaries, 0 generals, 0 SOSs, and 0 indicators.
Presolve time = 0.14 sec. (89.91 ticks)
Probing fixed 0 vars, tightened 230 bounds.
Probing time = 0.11 sec. (21.21 ticks)
Clique table members: 39868.
MIP emphasis: balance optimality and feasibility.
MIP search method: dynamic search.
Parallel mode: opportunistic, using up to 32 threads.
Root relaxation solution time = 0.53 sec. (579.80 ticks)

        Nodes                                         Cuts/
   Node  Left     Objective  IInf  Best Integer    Best Bound    ItCnt     Gap

      0     0    61348.5770   198                  61348.5770     5967         
      0     0    60079.8955   100                   Cuts: 147     6106         
      0     0    59935.1721   102                    Cuts: 58     6165         
      0     0    59929.3520    98                    Cuts: 34     6202         
      0     0    59923.3227    99                    Cuts: 33     6222         
      0     0    59917.6275   101                    Cuts: 23     6233         
      0     8    infeasible                          Cuts: 14     6357         
Elapsed time = 7.34 sec. (4137.72 ticks, tree = 0.02 MB, solutions = 0)
    538   309    34976.3039    32                  54812.1463     9190         
   1162   713    32813.9387    27                  54812.1463    16757         
   1746   921  -105548.3873    48                  54812.1463    20079         
*  2253+ 1189                        35904.0550    54812.1463            52.66%
   2302  1248   -82750.7705    34    35904.0550    54812.1463    29756   52.66%
   2892   921    37807.5898    21    35904.0550    54748.6210    37667   52.49%
*  3416+  870                        36804.8699    51584.5141            40.16%
   3616   916    37807.5898    21    36804.8699    51386.5780    44718   39.62%
*  3973  1134      integral     0    36804.8699    51386.5780    47557   39.62%
   4451  1406    46188.5201    30    36804.8699    51386.5780    52933   39.62%
   5283  1565        cutoff          36804.8699    51305.3554    57215   39.40%
   6112  2130    37878.5405    24    36804.8699    49923.6366    65792   35.64%
   8270  2133    36883.8945    29    36804.8699    46290.2657    75866   25.77%
Elapsed time = 23.28 sec. (7241.97 ticks, tree = 12.07 MB, solutions = 5)
   8304  2340        cutoff          36804.8699    42614.1923    91405   15.78%
   9510   202        cutoff          36804.8699    37393.8511    96987    1.60%
  10407   257        cutoff          36804.8699    37393.8511    98618    1.60%
  10516   341    36847.1450    10    36804.8699    37393.8511   100889    1.60%

GUB cover cuts applied:  1
Cover cuts applied:  6
Implied bound cuts applied:  10
Flow cuts applied:  41
Mixed integer rounding cuts applied:  5
Gomory fractional cuts applied:  6

Root node processing (before b&c):
  Real time             =    5.89 sec. (4131.14 ticks)
Parallel b&c, 32 threads:
  Real time             =   37.81 sec. (9672.86 ticks)
  Sync time (average)   =    8.22 sec.
  Wait time (average)   =    0.20 sec.
                          ------------
Total (root+branch&cut) =   43.70 sec. (13803.99 ticks)

Solution pool: 5 solutions saved.

MIP - Integer optimal, tolerance (0.01/1e-06):  Objective =  3.6804869936e+04
Current MIP best bound =  3.7168897597e+04 (gap = 364.028, 0.99%)
Solution time =   43.70 sec.  Iterations = 101255  Nodes = 10522 (357)
Deterministic time = 13804.15 ticks  (315.86 ticks/sec)

CPLEX> Incumbent solution written to file 'C:\Users\llavin\Desktop\competitiveMPEC_dev1.27\logs\tmp8fr7qvnj.cplex.sol'.
CPLEX> Exporting results... 
